(assert (forall ((pkt_0_4_6_0  Int  )(state_group_0_state_0_5_7_0  Int  )(state_group_0_state_1_6_8_0  Int  )) (let ((_n0 state_group_0_state_1_6_8_0 ))
(let ((_n1 state_group_0_state_0_5_7_0 ))
(let ((_n2 true ))
(let ((_n3 (+   _n1   (ite  _n2  1 0) ) ))
(let ((_n4 (ite (=  _n0  0)  _n3   _n1  ) ))
(let ((_n5 false ))
(let ((_n6 (=   _n0   (ite  _n5  1 0) ) ))
(let ((_n7 999 ))
(let ((_n8 (ite (=  _n0  0)  _n1   (ite  _n5  1 0)  ) ))
(let ((_n9 (=   _n8   _n7 ) ))
(let ((_n10 (ite (=  _n0  0)  _n9   _n5  ) ))
(let ((_n11 (not  _n6 ) ))
(let ((_n12 (or   _n10   _n11 ) ))
(let ((_n13 (not  _n12 ) ))
(let ((_n14 (+   _n1   (ite  _n13  1 0) ) ))
(let ((_n15 (and   _n10   _n6 ) ))
(let ((_n16 (ite  _n15   _n7   (ite  _n5  1 0)  ) ))
(let ((_n17 (+   _n16   (ite  _n15  1 0) ) ))
(let ((_n18 (ite  _n15   _n17   (ite  _n5  1 0)  ) ))
(let ((_n19 (ite  _n15   (ite  _n5  1 0)   _n1  ) ))
(let ((_n20 (+   _n19   _n18 ) ))
(let ((_n21 (ite (=  (ite  _n10  1 0)  1)  _n20   _n14  ) ))
(let ((_n22 (ite (=  (ite  _n6  1 0)  1)  _n21   _n1  ) ))
(let ((_n23 (=   _n22   _n4 ) ))
(let ((_n25 (ite (=  _n1  999)  (ite  _n2  1 0)   _n0  ) ))
(let ((_n26 (ite (=  _n0  0)  _n25   _n0  ) ))
(let ((_n27 (-  (ite  _n15  1 0) )))
(let ((_n28 2 ))
(let ((_n29 (ite  _n15   _n28   (ite  _n5  1 0)  ) ))
(let ((_n30 (+   _n29   _n27 ) ))
(let ((_n31 (ite  _n15   _n30   (ite  _n5  1 0)  ) ))
(let ((_n32 (+   _n0   _n31 ) ))
(let ((_n33 (ite (=  (ite  _n10  1 0)  1)  _n32   _n0  ) ))
(let ((_n34 (ite (=  (ite  _n6  1 0)  1)  _n33   _n0  ) ))
(let ((_n35 (=   _n34   _n26 ) ))
(let ((_n37 pkt_0_4_6_0 ))
(implies  (and (and (>= state_group_0_state_1_6_8_0 0) (< state_group_0_state_1_6_8_0 1024 ))  (and (and (>= state_group_0_state_0_5_7_0 0) (< state_group_0_state_0_5_7_0 1024 ))  (and (>= pkt_0_4_6_0 0) (< pkt_0_4_6_0 1024 )) ) )   (and  _n23  _n35 )  )))))))))))))))))))))))))))))))))))))))
(check-sat)
(get-model)
(exit)